
%FILE DATA:	Soccer Computational Problem for MiniZinc Models	%
%AUTHOR:	Jack Wall	%
%CONTACT:  	116397063@umail.ucc.ie			%
%LAST UPDATE:	03/03/2020, 16:21:28						%
%DESCRIPTION: 	65 games played with 25 games left				%


n=10; %number of teams

%Games to play
games=[|2,1|2,8|8,10|4,3|8,5|10,9|9,10|7,3|4,2|7,10|5,7|7,1|9,8|9,2|10,7|10,5|2,7|8,4|2,9|10,2|5,2|7,6|1,3|1,7|2,5|];

%Initial points
iPoints=[17,13,19,25,19,18,10,16,14,18];

%POSITION CONSTRAINTS
% [|teamID, operator, position|...]
% operators index:
%  1 for =  operator
%  2 for >  operator
%  3 for >= operator
%  4 for <  operator
%  5 for <= operator
positionConstraints=[|4,5,1|5,3,2|];